200
1000
299
299
298
298
296
295
295
292
291
289
289
289
288
287
287
285
285
285
282
281
280
280
278
277
277
276
275
272
271
271
269
269
268
265
264
261
260
260
260
260
259
258
257
255
254
251
251
250
250
247
247
240
239
238
237
237
236
236
236
236
235
234
234
231
231
230
227
227
227
226
225
225
225
223
223
218
217
217
216
216
215
215
214
213
212
212
210
207
207
206
204
202
202
201
200
198
195
194
193
191
191
188
188
186
185
185
183
183
181
179
179
177
176
175
174
174
173
170
169
169
166
166
165
163
161
161
160
159
158
158
156
156
156
153
153
153
150
149
147
146
146
145
145
141
140
139
138
137
137
136
136
135
134
134
134
132
132
131
130
130
130
129
128
128
128
127
126
125
124
124
122
121
121
121
119
119
117
117
116
116
114
114
114
113
112
112
111
111
110
110
108
107
106
105
105
104
104
104
103
102
